c turning on binary mode checking
c parsing input formula with 259840 variables and 1039929 clauses
c finished parsing, read 27282138 bytes from proof file
c detected empty clause; start verification via backward checking
c 27156 of 1039929 clauses in core                            
c 42174 of 657940 lemmas in core using 372369 resolution steps
c 0 RAT lemmas in core; 3547 redundant literals in core lemmas
s VERIFIED
c verification time: 3.668 seconds
